NAME          
ROWS
 N  OBJ
 L  c1
COLUMNS
    MARKER    'MARKER'                 'INTORG'
    x[1]      c1        637
    x[1]      OBJ       -724
    x[2]      c1        302
    x[2]      OBJ       -370
    x[3]      c1        109
    x[3]      OBJ       -149
    x[4]      c1        190
    x[4]      OBJ       -231
    x[5]      c1        542
    x[5]      OBJ       -588
    x[6]      c1        880
    x[6]      OBJ       -840
    x[7]      c1        337
    x[7]      OBJ       -426
    x[8]      c1        654
    x[8]      OBJ       -629
    x[9]      c1        148
    x[9]      OBJ       -83
    x[10]     c1        279
    x[10]     OBJ       -197
RHS
    rhs       c1        2039
RANGES
BOUNDS
 BV bounds    x[1]
 BV bounds    x[2]
 BV bounds    x[3]
 BV bounds    x[4]
 BV bounds    x[5]
 BV bounds    x[6]
 BV bounds    x[7]
 BV bounds    x[8]
 BV bounds    x[9]
 BV bounds    x[10]
ENDATA
